s 求解结果: 1
t 321
v 1 -3 4 7 8 9 13 -14 16 18 -19 -20 21 -22 -23 -24 -26 -28 29 31 33 -34 35 -36 38 -39 41 42 -44 46 47 52 -53 55 57 -60 63 65 67 71 72 -75 76 77 -78 79 -80 -81 83 84 85 87 89 92 93 -95 